* ENCODING=ISO-8859-1
NAME          CPLEX
ROWS
 N  obj1    
 G  c1      
 G  c2      
 G  c3      
 G  c4      
 G  c5      
 G  c6      
 G  c7      
 G  c8      
 G  c9      
 G  c10     
 G  c11     
 G  c12     
 G  c13     
 G  c14     
 G  c15     
 G  c16     
 G  c17     
 G  c18     
 G  c19     
 G  c20     
 G  c21     
 G  c22     
 G  c23     
 G  c24     
 G  c25     
 G  c26     
 G  c27     
 G  c28     
 G  c29     
 G  c30     
 G  c31     
 G  c32     
 G  c33     
 G  c34     
 G  c35     
 G  c36     
 G  c37     
 G  c38     
 G  c39     
 G  c40     
 G  c41     
 G  c42     
 G  c43     
 G  c44     
 G  c45     
 G  c46     
 G  c47     
 G  c48     
 G  c49     
 G  c50     
 G  c51     
 G  c52     
 G  c53     
 G  c54     
 G  c55     
 G  c56     
 G  c57     
 G  c58     
 G  c59     
 G  c60     
COLUMNS
    MARK0000  'MARKER'                 'INTORG'
    x1        obj1                            1
    x1        c2                            360
    x1        c8                            280
    x1        c11                           375
    x1        c17                           403
    x1        c18                           183
    x1        c24                           164
    x1        c42                           328
    x1        c45                           904
    x2        obj1                            1
    x2        c5                            655
    x2        c19                           777
    x2        c24                           456
    x2        c33                           654
    x2        c37                           619
    x2        c60                           658
    x3        obj1                            1
    x3        c2                            500
    x3        c9                            588
    x3        c11                           835
    x3        c18                           197
    x3        c19                           629
    x3        c32                           821
    x3        c46                           127
    x3        c59                           707
    x4        obj1                            1
    x4        c28                           160
    x4        c30                           333
    x4        c36                           974
    x4        c44                           847
    x5        obj1                            1
    x5        c5                            839
    x5        c23                           282
    x5        c35                           159
    x5        c37                           461
    x5        c40                           895
    x5        c46                           182
    x5        c54                           535
    x5        c58                           410
    x5        c59                           928
    x6        obj1                            1
    x6        c29                           491
    x6        c34                           609
    x6        c38                           417
    x6        c39                           755
    x6        c40                           814
    x7        obj1                            1
    x7        c2                            575
    x7        c7                            931
    x7        c17                           705
    x7        c30                           843
    x7        c32                           185
    x7        c45                           705
    x7        c53                           407
    x7        c55                           202
    x8        obj1                            1
    x8        c1                            795
    x8        c19                           317
    x8        c39                           536
    x8        c48                           893
    x8        c49                           898
    x8        c60                           325
    x9        obj1                            1
    x9        c9                            460
    x9        c13                           651
    x9        c37                           407
    x9        c38                           226
    x9        c42                           308
    x9        c49                           593
    x10       obj1                            1
    x10       c9                            287
    x10       c16                           560
    x10       c33                           774
    x10       c52                           340
    x10       c58                           867
    x11       obj1                            1
    x11       c4                            254
    x11       c7                            510
    x11       c24                           923
    x11       c25                           235
    x11       c27                           503
    x11       c33                           435
    x11       c46                           197
    x11       c47                           639
    x11       c55                           908
    x12       obj1                            1
    x12       c6                            900
    x12       c15                           910
    x12       c23                           947
    x12       c52                           330
    x12       c53                           910
    x12       c59                           402
    x13       obj1                            1
    x13       c3                            433
    x13       c9                            630
    x13       c30                           539
    x13       c39                           118
    x13       c44                           647
    x13       c46                           199
    x14       obj1                            1
    x14       c4                            308
    x14       c21                           960
    x14       c26                           223
    x14       c34                           897
    x14       c36                           404
    x14       c52                           981
    x15       obj1                            1
    x15       c12                           601
    x15       c14                           639
    x15       c34                           352
    x15       c59                           243
    x16       obj1                            1
    x16       c19                           331
    x16       c27                           949
    x16       c30                           219
    x16       c33                           706
    x16       c37                           186
    x16       c43                           793
    x16       c51                           707
    x16       c57                           727
    x17       obj1                            1
    x17       c19                           291
    x17       c22                           917
    x17       c24                           324
    x18       obj1                            1
    x18       c11                           449
    x18       c18                           271
    x18       c38                           200
    x18       c40                           519
    x18       c46                           993
    x19       obj1                            1
    x19       c1                            529
    x19       c42                           796
    x19       c44                           721
    x19       c45                           679
    x19       c48                           242
    x19       c50                           356
    x19       c56                           824
    x20       obj1                            1
    x20       c1                            624
    x20       c18                           968
    x20       c23                           419
    x20       c29                           558
    x20       c30                           559
    x20       c32                           835
    x20       c49                           915
    x21       obj1                            1
    x21       c17                           407
    x21       c26                           322
    x21       c29                           622
    x21       c31                           785
    x21       c40                           606
    x21       c53                           624
    x22       obj1                            1
    x22       c11                           489
    x22       c16                           530
    x22       c56                           468
    x23       obj1                            1
    x23       c18                           133
    x24       obj1                            1
    x24       c2                            726
    x24       c4                            390
    x24       c10                           577
    x24       c17                           884
    x24       c24                           423
    x24       c28                           330
    x24       c45                           315
    x24       c51                           398
    x25       obj1                            1
    x25       c2                            840
    x25       c19                           187
    x25       c32                           385
    x25       c59                           150
    x26       obj1                            1
    x26       c5                            604
    x26       c6                            617
    x26       c12                           480
    x26       c15                           768
    x26       c26                           922
    x26       c48                           850
    x26       c50                           969
    x26       c57                           850
    x26       c58                           470
    x27       obj1                            1
    x27       c14                           944
    x27       c29                           462
    x27       c34                           975
    x27       c40                           593
    x28       obj1                            1
    x28       c2                            298
    x28       c10                           150
    x28       c13                           157
    x28       c26                           748
    x28       c59                           527
    x29       obj1                            1
    x29       c4                            217
    x29       c11                           283
    x29       c14                           407
    x29       c32                           292
    x29       c37                           792
    x29       c41                           785
    x29       c46                           456
    x29       c47                           359
    x29       c54                           613
    x30       obj1                            1
    x30       c1                            720
    x30       c19                           217
    x30       c48                           472
    x30       c51                           611
    x30       c58                           567
    x31       obj1                            1
    x31       c24                           444
    x31       c29                           212
    x31       c33                           829
    x31       c40                           882
    x31       c60                           716
    x32       obj1                            1
    x32       c2                            809
    x33       obj1                            1
    x33       c14                           137
    x33       c15                           616
    x33       c18                           825
    x33       c45                           875
    x33       c49                           971
    x33       c51                           409
    x34       obj1                            1
    x34       c3                            228
    x34       c5                            395
    x34       c6                            696
    x34       c9                            694
    x34       c16                           122
    x34       c18                           249
    x34       c23                           266
    x34       c33                           112
    x34       c45                           807
    x34       c47                           832
    x34       c58                           707
    x35       obj1                            1
    x35       c8                            656
    x35       c12                           145
    x35       c14                           390
    x35       c39                           996
    x36       obj1                            1
    x36       c8                            453
    x36       c11                           798
    x36       c12                           215
    x36       c15                           934
    x36       c41                           865
    x37       obj1                            1
    x37       c7                            495
    x37       c28                           245
    x37       c37                           726
    x37       c42                           941
    x37       c44                           917
    x37       c52                           202
    x37       c53                           556
    x38       obj1                            1
    x38       c6                            750
    x38       c12                           553
    x38       c14                           779
    x38       c27                           104
    x38       c30                           904
    x38       c42                           474
    x38       c50                           677
    x38       c54                           646
    x39       obj1                            1
    x39       c10                           253
    x39       c17                           917
    x39       c38                           614
    x39       c49                           826
    x39       c52                           227
    x40       obj1                            1
    x40       c14                           511
    x40       c19                           850
    x40       c28                           666
    x40       c31                           361
    x40       c35                           688
    x40       c41                           718
    x40       c44                           812
    x40       c51                           129
    x40       c52                           514
    x41       obj1                            1
    x41       c3                            197
    x41       c5                            241
    x41       c13                           697
    x41       c21                           517
    x41       c33                           854
    x41       c35                           501
    x41       c38                           474
    x41       c54                           879
    x41       c55                           156
    x42       obj1                            1
    x42       c2                            789
    x42       c23                           115
    x42       c45                           776
    x42       c46                           298
    x43       obj1                            1
    x43       c6                            582
    x43       c10                           807
    x43       c18                           338
    x43       c26                           937
    x43       c28                           185
    x43       c29                           777
    x43       c30                           973
    x43       c32                           472
    x43       c39                           135
    x43       c43                           317
    x44       obj1                            1
    x44       c8                            935
    x44       c9                            304
    x44       c37                           350
    x44       c48                           144
    x44       c58                           379
    x45       obj1                            1
    x45       c4                            247
    x45       c7                            181
    x45       c39                           102
    x45       c52                           447
    x45       c56                           345
    x46       obj1                            1
    x46       c1                            635
    x46       c9                            468
    x46       c25                           951
    x46       c29                           427
    x46       c33                           660
    x46       c43                           572
    x46       c49                           326
    x46       c51                           637
    x46       c58                           180
    x47       obj1                            1
    x47       c3                            614
    x47       c4                            953
    x47       c8                            241
    x47       c10                           928
    x47       c30                           426
    x47       c32                           778
    x47       c44                           210
    x47       c47                           269
    x47       c48                           651
    x47       c49                           304
    x47       c51                           733
    x48       obj1                            1
    x48       c1                            281
    x48       c18                           108
    x48       c28                           908
    x48       c29                           531
    x48       c45                           685
    x48       c57                           663
    x49       obj1                            1
    x49       c3                            559
    x49       c22                           236
    x49       c24                           908
    x49       c28                           711
    x49       c38                           393
    x49       c39                           420
    x50       obj1                            1
    x50       c13                           253
    x50       c15                           902
    x50       c30                           615
    x51       obj1                            1
    x51       c4                            920
    x51       c8                            431
    x51       c20                           221
    x51       c31                           694
    x52       obj1                            1
    x52       c1                            569
    x52       c15                           731
    x52       c40                           281
    x52       c46                           716
    x52       c55                           956
    x53       obj1                            1
    x53       c14                           249
    x53       c22                           109
    x53       c31                           948
    x53       c48                           989
    x53       c58                           497
    x54       obj1                            1
    x54       c7                            415
    x54       c27                           424
    x54       c32                           674
    x54       c45                           377
    x55       obj1                            1
    x55       c16                           326
    x55       c20                           827
    x55       c48                           963
    x56       obj1                            1
    x56       c1                            761
    x56       c6                            950
    x56       c10                           714
    x56       c17                           296
    x56       c25                           398
    x56       c32                           217
    x56       c38                           988
    x56       c40                           317
    x56       c44                           348
    x57       obj1                            1
    x57       c12                           880
    x57       c13                           541
    x57       c17                           309
    x57       c20                           354
    x57       c37                           437
    x57       c40                           989
    x58       obj1                            1
    x58       c21                           608
    x58       c26                           890
    x58       c27                           479
    x58       c36                           686
    x58       c43                           427
    x58       c51                           368
    x59       obj1                            1
    x59       c19                           632
    x59       c20                           882
    x59       c29                           515
    x59       c33                           551
    x59       c44                           544
    x60       obj1                            1
    x60       c2                            207
    x60       c17                           930
    x60       c20                           170
    x60       c24                           475
    x60       c25                           620
    x60       c26                           196
    x60       c39                           908
    x60       c48                           141
    x60       c55                           886
    MARK0001  'MARKER'                 'INTEND'
RHS
    rhs       c1                           2457
    rhs       c2                           2552
    rhs       c3                           1016
    rhs       c4                           1645
    rhs       c5                           1367
    rhs       c6                           2248
    rhs       c7                           1266
    rhs       c8                           1498
    rhs       c9                           1716
    rhs       c10                          1715
    rhs       c11                          1615
    rhs       c12                          1437
    rhs       c13                          1150
    rhs       c14                          2028
    rhs       c15                          2431
    rhs       c16                           769
    rhs       c17                          2426
    rhs       c18                          1636
    rhs       c19                          2116
    rhs       c20                          1227
    rhs       c21                          1043
    rhs       c22                           631
    rhs       c23                          1015
    rhs       c24                          2059
    rhs       c25                          1102
    rhs       c26                          2119
    rhs       c27                          1230
    rhs       c28                          1603
    rhs       c29                          2298
    rhs       c30                          2706
    rhs       c31                          1394
    rhs       c32                          2330
    rhs       c33                          2788
    rhs       c34                          1417
    rhs       c35                           674
    rhs       c36                          1032
    rhs       c37                          1989
    rhs       c38                          1656
    rhs       c39                          1985
    rhs       c40                          2948
    rhs       c41                          1184
    rhs       c42                          1424
    rhs       c43                          1055
    rhs       c44                          2523
    rhs       c45                          3062
    rhs       c46                          1584
    rhs       c47                          1050
    rhs       c48                          2673
    rhs       c49                          2417
    rhs       c50                          1001
    rhs       c51                          1996
    rhs       c52                          1521
    rhs       c53                          1249
    rhs       c54                          1337
    rhs       c55                          1554
    rhs       c56                           819
    rhs       c57                          1120
    rhs       c58                          2039
    rhs       c59                          1479
    rhs       c60                           850
BOUNDS
 LI bnd       x1        0
 LI bnd       x2        0
 LI bnd       x3        0
 LI bnd       x4        0
 LI bnd       x5        0
 LI bnd       x6        0
 LI bnd       x7        0
 LI bnd       x8        0
 LI bnd       x9        0
 LI bnd       x10       0
 LI bnd       x11       0
 LI bnd       x12       0
 LI bnd       x13       0
 LI bnd       x14       0
 LI bnd       x15       0
 LI bnd       x16       0
 LI bnd       x17       0
 LI bnd       x18       0
 LI bnd       x19       0
 LI bnd       x20       0
 LI bnd       x21       0
 LI bnd       x22       0
 LI bnd       x23       0
 LI bnd       x24       0
 LI bnd       x25       0
 LI bnd       x26       0
 LI bnd       x27       0
 LI bnd       x28       0
 LI bnd       x29       0
 LI bnd       x30       0
 LI bnd       x31       0
 LI bnd       x32       0
 LI bnd       x33       0
 LI bnd       x34       0
 LI bnd       x35       0
 LI bnd       x36       0
 LI bnd       x37       0
 LI bnd       x38       0
 LI bnd       x39       0
 LI bnd       x40       0
 LI bnd       x41       0
 LI bnd       x42       0
 LI bnd       x43       0
 LI bnd       x44       0
 LI bnd       x45       0
 LI bnd       x46       0
 LI bnd       x47       0
 LI bnd       x48       0
 LI bnd       x49       0
 LI bnd       x50       0
 LI bnd       x51       0
 LI bnd       x52       0
 LI bnd       x53       0
 LI bnd       x54       0
 LI bnd       x55       0
 LI bnd       x56       0
 LI bnd       x57       0
 LI bnd       x58       0
 LI bnd       x59       0
 LI bnd       x60       0
ENDATA
